NAME: instances/5_4.tsp
TYPE: TSP
COMMENT: 5-Staedte in Burma (Zaw Win)
DIMENSION: 5
EDGE_WEIGHT_TYPE: GEO
EDGE_WEIGHT_FORMAT: FUNCTION
DISPLAY_DATA_TYPE: COORD_DISPLAY
NODE_COORD_SECTION
1 -11.18 24.25
2 -14.16 25.34
3 13.06 18.6
4 -9.01 -7.74
5 -13.81 12.42
EOF
